NAME : traveling-santa-2018-prime-paths.29020.tour
COMMENT : Length = 29020
COMMENT : Found by LKH [Keld Helsgaun] Sun Jun 12 19:59:32 2022
TYPE : TOUR
DIMENSION : 100
TOUR_SECTION
1
25
6
5
90
3
27
18
15
32
52
50
16
54
95
9
37
65
59
100
24
72
79
8
33
38
69
87
88
63
46
2
21
40
48
51
49
43
29
85
60
4
70
35
57
28
12
89
76
53
14
44
20
75
17
71
82
7
58
80
26
64
13
10
23
39
74
67
61
45
36
86
68
91
30
84
93
56
34
55
19
41
78
96
47
62
98
11
92
99
42
97
73
31
81
94
77
22
66
83
-1
EOF
